GeneratedTests/Random_10/Random_10_9.tsp
NAME: Random_10_9
TYPE: TSP
DIMENSION: 10
EDGE_WEIGHT_TYPE: EUC_2D
NODE_COORD_SECTION
1 28.443926 10.519046
2 3.385518 8.233816
3 27.894693 8.435603
4 1.8270814 20.198679
5 26.832804 4.6464963
6 15.878622 28.368551
7 26.923977 25.732271
8 1.6638511 1.2620294
9 29.348675 5.874136
10 3.4612637 3.200142
EOF
