GeneratedTests/Random_10/Random_10_9.txt
NAME: Random_10_9
TYPE: TSP
DIMENSION: 10
EDGE_WEIGHT_TYPE: EUC_2D
NODE_COORD_SECTION
1 1.1856616 28.012287
2 24.612196 4.2485514
3 10.969252 2.806261
4 15.275433 20.699867
5 14.946388 4.6428413
6 3.2376032 3.6651206
7 7.917704 19.058817
8 0.72030723 18.55338
9 14.967088 25.095724
10 7.414198 23.45447
EOF
